(set-option :produce-assignments true)
(set-logic QF_UF)
(declare-const p Bool) 
(declare-const q Bool) 
(declare-const r Bool)
(declare-const s Bool)
(declare-const t Bool)
(declare-const w Bool) 
(assert 
(and
(or t (not p) (not s))
(or q s w)
(or (not s) (not p) (not q))
(or p w (not t))
(or (not w) s (not t))
(or p w (not q))
(or r (not w) (not t))
(or (not q) (not r) t)
(or w s (not w)) 
(or (not s) (not t) p) 
(or (not q) s p)
))
(check-sat)
(get-model)
(exit)